c 65_win_checker.cnf
c
c field = 65
c formula set type = win_checker
c
p cnf 5 70
120 
122 
124 
126 
-130 
121 
123 
125 
127 
-131 
122 
124 
126 
130 
-120 
123 
125 
127 
131 
-121 
122 
124 
126 
130 
-132 
123 
125 
127 
131 
-133 
124 
126 
130 
132 
-122 
125 
127 
131 
133 
-123 
124 
126 
130 
132 
-134 
125 
127 
131 
133 
-135 
126 
130 
132 
134 
-124 
127 
131 
133 
135 
-125 
126 
130 
132 
134 
-136 
127 
131 
133 
135 
-137 
130 
132 
134 
136 
-126 
131 
133 
135 
137 
-127 
130 
132 
134 
136 
-138 
131 
133 
135 
137 
-139 
8 
38 
68 
98 
-158 
9 
39 
69 
99 
-159 
38 
68 
98 
158 
-8 
39 
69 
99 
159 
-9 
38 
68 
98 
158 
-188 
39 
69 
99 
159 
-189 
68 
98 
158 
188 
-38 
69 
99 
159 
189 
-39 
68 
98 
158 
188 
-218 
69 
99 
159 
189 
-219 
98 
158 
188 
218 
-68 
99 
159 
189 
219 
-69 
98 
158 
188 
218 
-248 
99 
159 
189 
219 
-249 
158 
188 
218 
248 
-98 
159 
189 
219 
249 
-99 
158 
188 
218 
248 
-278 
159 
189 
219 
249 
-279 
0 
32 
64 
96 
-160 
1 
33 
65 
97 
-161 
32 
64 
96 
160 
-0 
33 
65 
97 
161 
-1 
32 
64 
96 
160 
-192 
33 
65 
97 
161 
-193 
64 
96 
160 
192 
-32 
65 
97 
161 
193 
-33 
64 
96 
160 
192 
-224 
65 
97 
161 
193 
-225 
96 
160 
192 
224 
-64 
97 
161 
193 
225 
-65 
96 
160 
192 
224 
-256 
97 
161 
193 
225 
-257 
160 
192 
224 
256 
-96 
161 
193 
225 
257 
-97 
160 
192 
224 
256 
-288 
161 
193 
225 
257 
-289 
16 
44 
72 
100 
-156 
17 
45 
73 
101 
-157 
44 
72 
100 
156 
-16 
45 
73 
101 
157 
-17 
44 
72 
100 
156 
-184 
45 
73 
101 
157 
-185 
72 
100 
156 
184 
-44 
73 
101 
157 
185 
-45 
72 
100 
156 
184 
-212 
73 
101 
157 
185 
-213 
100 
156 
184 
212 
-72 
101 
157 
185 
213 
-73 
100 
156 
184 
212 
-240 
101 
157 
185 
213 
-241 
156 
184 
212 
240 
-100 
157 
185 
213 
241 
-101 
